c n orig vars 323
p cnf 698 1369
465 0
-324 368 0
-324 427 0
324 -368 -427 0
325 -332 0
325 -331 0
-325 332 331 0
326 -373 0
326 -374 0
-326 373 374 0
327 -325 0
327 -324 0
-327 325 324 0
328 -691 0
328 -692 0
-328 691 692 0
329 -327 0
329 -326 0
-329 327 326 0
330 -329 0
330 -328 0
-330 329 328 0
-331 369 0
-331 429 0
331 -369 -429 0
332 -432 0
332 -431 0
-332 432 431 0
-333 334 0
-333 438 0
333 -334 -438 0
334 -437 0
334 -440 0
-334 437 440 0
335 -181 0
335 -146 0
335 -145 0
335 -144 0
335 -143 0
335 -150 0
335 -149 0
335 -148 0
-335 181 146 145 144 143 150 149 148 0
336 -147 0
336 -161 0
336 -137 0
336 -101 0
336 -102 0
336 -103 0
336 -104 0
336 -105 0
-336 147 161 137 101 102 103 104 105 0
337 -341 0
337 -342 0
-337 341 342 0
338 -167 0
338 -168 0
338 -169 0
338 -170 0
338 -159 0
338 -160 0
-338 167 168 169 170 159 160 0
339 -333 0
339 -271 0
-339 333 271 0
340 -469 0
340 -226 0
-340 469 226 0
-341 339 0
-341 340 0
341 -339 -340 0
342 -571 0
342 -570 0
-342 571 570 0
343 -525 0
343 -291 0
-343 525 291 0
344 -38 0
344 -539 0
-344 38 539 0
345 -314 0
345 -346 0
345 -353 0
345 -354 0
-345 314 346 353 354 0
346 -7 0
346 -534 0
346 -12 0
346 -535 0
346 -536 0
346 -180 0
346 -537 0
346 -538 0
-346 7 534 12 535 536 180 537 538 0
347 -278 0
347 -279 0
347 -280 0
347 -281 0
347 -317 0
347 -316 0
-347 278 279 280 281 317 316 0
348 -315 0
348 -345 0
-348 315 345 0
349 -69 0
349 -448 0
349 -64 0
349 -447 0
349 -450 0
349 -171 0
349 -449 0
349 -452 0
-349 69 448 64 447 450 171 449 452 0
350 -276 0
350 -277 0
-350 276 277 0
351 -274 0
351 -352 0
-351 274 352 0
352 -275 0
352 -349 0
352 -350 0
352 -347 0
-352 275 349 350 347 0
353 -321 0
353 -320 0
-353 321 320 0
354 -319 0
354 -318 0
354 -323 0
354 -322 0
354 -156 0
354 -138 0
-354 319 318 323 322 156 138 0
-355 624 0
-355 467 0
355 -624 -467 0
356 -234 0
356 -233 0
-356 234 233 0
357 -239 0
357 -359 0
-357 239 359 0
358 -245 0
358 -53 0
-358 245 53 0
359 -356 0
359 -355 0
-359 356 355 0
360 -235 0
360 -246 0
-360 235 246 0
-361 364 0
-361 468 0
361 -364 -468 0
362 -134 0
362 -131 0
-362 134 131 0
-363 357 0
-363 360 0
363 -357 -360 0
364 -121 0
364 -132 0
-364 121 132 0
-365 366 0
-365 372 0
365 -366 -372 0
366 -601 0
366 -600 0
-366 601 600 0
367 -605 0
367 -606 0
-367 605 606 0
-368 365 0
-368 425 0
368 -365 -425 0
-369 370 0
-369 425 0
369 -370 -425 0
-370 367 0
-370 372 0
370 -367 -372 0
371 -511 0
371 -510 0
-371 511 510 0
372 -654 0
372 -653 0
-372 654 653 0
373 -636 0
373 -635 0
-373 636 635 0
-374 694 0
-374 425 0
374 -694 -425 0
538 -204 0
538 -161 0
538 -137 0
538 -101 0
538 -68 0
538 -103 0
538 -6 0
538 -70 0
-538 204 161 137 101 68 103 6 70 0
376 -294 0
376 -293 0
-376 294 293 0
-377 426 0
-377 367 0
377 -426 -367 0
-378 426 0
-378 367 0
378 -426 -367 0
-379 426 0
-379 371 0
379 -426 -371 0
-380 426 0
-380 371 0
380 -426 -371 0
-381 371 0
-381 367 0
381 -371 -367 0
-382 371 0
-382 367 0
382 -371 -367 0
-383 426 0
-383 366 0
383 -426 -366 0
-384 426 0
-384 366 0
384 -426 -366 0
-385 371 0
-385 366 0
385 -371 -366 0
-386 371 0
-386 366 0
386 -371 -366 0
387 -27 0
387 -19 0
387 -304 0
-387 27 19 304 0
388 -308 0
388 -309 0
388 -651 0
388 -305 0
-388 308 309 651 305 0
389 -303 0
389 -296 0
389 -298 0
389 -288 0
389 -299 0
389 -289 0
389 -301 0
389 -13 0
-389 303 296 298 288 299 289 301 13 0
390 -387 0
390 -388 0
-390 387 388 0
391 -308 0
391 -309 0
391 -652 0
391 -310 0
-391 308 309 652 310 0
392 -154 0
392 -284 0
392 -286 0
392 -158 0
392 -273 0
392 -243 0
392 -247 0
392 -244 0
-392 154 284 286 158 273 243 247 244 0
393 -394 0
393 -391 0
-393 394 391 0
394 -27 0
394 -19 0
394 -18 0
-394 27 19 18 0
395 -285 0
395 -284 0
395 -287 0
395 -286 0
395 -273 0
395 -272 0
395 -247 0
395 -248 0
-395 285 284 287 286 273 272 247 248 0
396 -240 0
396 -296 0
396 -297 0
396 -298 0
396 -299 0
396 -300 0
396 -301 0
396 -302 0
-396 240 296 297 298 299 300 301 302 0
397 -123 0
397 -122 0
-397 123 122 0
-398 467 0
-398 468 0
398 -467 -468 0
-399 401 0
-399 404 0
399 -401 -404 0
400 -121 0
400 -120 0
-400 121 120 0
401 -78 0
401 -403 0
-401 78 403 0
402 -87 0
402 -88 0
-402 87 88 0
403 -406 0
403 -405 0
-403 406 405 0
404 -73 0
404 -74 0
-404 73 74 0
-405 665 0
-405 666 0
405 -665 -666 0
406 -75 0
406 -76 0
-406 75 76 0
407 -121 0
407 -34 0
-407 121 34 0
-408 410 0
-408 486 0
408 -410 -486 0
409 -238 0
409 -237 0
-409 238 237 0
410 -133 0
410 -487 0
-410 133 487 0
-474 475 0
-474 413 0
474 -475 -413 0
412 -480 0
412 -221 0
-412 480 221 0
-413 467 0
-413 468 0
413 -467 -468 0
414 -123 0
414 -31 0
-414 123 31 0
415 -630 0
415 -446 0
-415 630 446 0
416 -415 0
416 -417 0
-416 415 417 0
417 -412 0
417 -411 0
-417 412 411 0
418 -40 0
418 -37 0
-418 40 37 0
486 -124 0
486 -125 0
-486 124 125 0
487 -362 0
487 -361 0
-487 362 361 0
421 -415 0
421 -418 0
-421 415 418 0
-422 421 0
-422 416 0
422 -421 -416 0
-423 371 0
-423 372 0
423 -371 -372 0
-424 423 0
-424 427 0
424 -423 -427 0
425 -548 0
425 -549 0
-425 548 549 0
426 -550 0
426 -551 0
-426 550 551 0
427 -513 0
427 -645 0
-427 513 645 0
-428 426 0
-428 425 0
428 -426 -425 0
429 -611 0
429 -612 0
-429 611 612 0
-430 428 0
-430 427 0
430 -428 -427 0
-431 424 0
-431 429 0
431 -424 -429 0
-432 430 0
-432 429 0
432 -430 -429 0
-433 435 0
-433 442 0
433 -435 -442 0
434 -436 0
434 -225 0
-434 436 225 0
-435 441 0
-435 466 0
435 -441 -466 0
436 -253 0
436 -254 0
436 -256 0
436 -259 0
436 -257 0
436 -260 0
436 -251 0
436 -62 0
-436 253 254 256 259 257 260 251 62 0
437 -631 0
437 -443 0
-437 631 443 0
438 -437 0
438 -439 0
-438 437 439 0
439 -434 0
439 -433 0
-439 434 433 0
440 -270 0
440 -224 0
-440 270 224 0
441 -222 0
441 -223 0
-441 222 223 0
-442 467 0
-442 468 0
442 -467 -468 0
443 -217 0
443 -177 0
-443 217 177 0
444 -216 0
444 -215 0
444 -218 0
-444 216 215 218 0
445 -176 0
445 -173 0
-445 176 173 0
446 -178 0
446 -175 0
-446 178 175 0
-447 451 0
-447 468 0
447 -451 -468 0
448 -63 0
448 -66 0
-448 63 66 0
449 -3 0
449 -146 0
449 -145 0
449 -107 0
449 -143 0
449 -108 0
449 -148 0
449 -8 0
-449 3 146 145 107 143 108 148 8 0
450 -532 0
450 -60 0
-450 532 60 0
451 -65 0
451 -61 0
-451 65 61 0
452 -9 0
452 -161 0
452 -137 0
452 -68 0
452 -102 0
452 -67 0
452 -105 0
452 -6 0
-452 9 161 137 68 102 67 105 6 0
-453 454 0
-453 398 0
453 -454 -398 0
-454 397 0
-454 400 0
454 -397 -400 0
455 -203 0
455 -200 0
-455 203 200 0
456 -17 0
456 -16 0
456 -633 0
-456 17 16 633 0
-457 459 0
-457 460 0
457 -459 -460 0
458 -79 0
458 -80 0
-458 79 80 0
459 -118 0
459 -461 0
-459 118 461 0
460 -114 0
460 -113 0
-460 114 113 0
461 -462 0
461 -453 0
-461 462 453 0
462 -117 0
462 -116 0
-462 117 116 0
463 -464 0
463 -569 0
-463 464 569 0
464 -568 0
464 -231 0
-464 568 231 0
-465 330 0
465 -330 0
466 -228 0
466 -229 0
-466 228 229 0
467 -172 0
467 -180 0
-467 172 180 0
468 -174 0
468 -171 0
-468 174 171 0
-469 470 0
-469 471 0
469 -470 -471 0
470 -472 0
470 -473 0
-470 472 473 0
471 -472 0
471 -463 0
-471 472 463 0
472 -632 0
472 -444 0
-472 632 444 0
473 -227 0
473 -230 0
-473 227 230 0
-411 481 0
-411 482 0
411 -481 -482 0
-475 414 0
-475 407 0
475 -414 -407 0
476 -228 0
476 -42 0
-476 228 42 0
477 -479 0
477 -484 0
-477 479 484 0
478 -588 0
478 -587 0
-478 588 587 0
479 -485 0
479 -591 0
-479 485 591 0
480 -58 0
480 -254 0
480 -255 0
480 -259 0
480 -257 0
480 -260 0
480 -252 0
480 -283 0
-480 58 254 255 259 257 260 252 283 0
-481 483 0
-481 476 0
481 -483 -476 0
-482 467 0
-482 468 0
482 -467 -468 0
483 -44 0
483 -41 0
-483 44 41 0
484 -81 0
484 -84 0
484 -83 0
-484 81 84 83 0
485 -590 0
485 -589 0
-485 590 589 0
419 -228 0
419 -42 0
-419 228 42 0
420 -44 0
420 -41 0
-420 44 41 0
488 -490 0
488 -491 0
-488 490 491 0
-489 383 0
-489 427 0
489 -383 -427 0
490 -492 0
490 -493 0
-490 492 493 0
-491 384 0
-491 425 0
491 -384 -425 0
492 -494 0
492 -495 0
-492 494 495 0
-493 377 0
-493 429 0
493 -377 -429 0
494 -496 0
494 -497 0
-494 496 497 0
-495 378 0
-495 425 0
495 -378 -425 0
-496 380 0
-496 427 0
496 -380 -427 0
-497 379 0
-497 429 0
497 -379 -429 0
498 -308 0
498 -313 0
498 -655 0
498 -266 0
-498 308 313 655 266 0
499 -27 0
499 -307 0
499 -267 0
-499 27 307 267 0
500 -106 0
500 -296 0
500 -297 0
500 -288 0
500 -299 0
500 -289 0
500 -302 0
500 -11 0
-500 106 296 297 288 299 289 302 11 0
501 -241 0
501 -284 0
501 -287 0
501 -158 0
501 -273 0
501 -243 0
501 -248 0
501 -242 0
-501 241 284 287 158 273 243 248 242 0
502 -27 0
502 -307 0
502 -312 0
-502 27 307 312 0
503 -502 0
503 -505 0
-503 502 505 0
504 -126 0
504 -284 0
504 -287 0
504 -286 0
504 -158 0
504 -272 0
504 -242 0
504 -244 0
-504 126 284 287 286 158 272 242 244 0
505 -308 0
505 -313 0
505 -656 0
505 -269 0
-505 308 313 656 269 0
506 -499 0
506 -498 0
-506 499 498 0
507 -10 0
507 -296 0
507 -297 0
507 -298 0
507 -288 0
507 -300 0
507 -11 0
507 -13 0
-507 10 296 297 298 288 300 11 13 0
508 -653 0
508 -501 0
508 -500 0
508 -306 0
508 -503 0
-508 653 501 500 306 503 0
-509 523 0
-509 522 0
509 -523 -522 0
-510 548 0
-510 549 0
510 -548 -549 0
511 -509 0
511 -508 0
-511 509 508 0
512 -646 0
512 -620 0
-512 646 620 0
646 -619 0
646 -545 0
-646 619 545 0
514 -54 0
514 -625 0
514 -622 0
-514 54 625 622 0
515 -30 0
515 -661 0
515 -662 0
-515 30 661 662 0
516 -456 0
516 -614 0
-516 456 614 0
517 -518 0
517 -519 0
-517 518 519 0
518 -516 0
518 -515 0
-518 516 515 0
519 -658 0
519 -514 0
-519 658 514 0
520 -521 0
520 -657 0
-520 521 657 0
521 -658 0
521 -602 0
-521 658 602 0
657 -516 0
657 -610 0
-657 516 610 0
523 -544 0
523 -545 0
-523 544 545 0
524 -130 0
524 -74 0
-524 130 74 0
525 -290 0
525 -152 0
-525 290 152 0
526 -127 0
526 -88 0
-526 127 88 0
-527 344 0
-527 524 0
527 -344 -524 0
528 -121 0
528 -34 0
-528 121 34 0
529 -123 0
529 -31 0
-529 123 31 0
-530 467 0
-530 468 0
530 -467 -468 0
-531 529 0
-531 528 0
531 -529 -528 0
532 -533 0
532 -4 0
-532 533 4 0
533 -5 0
533 -2 0
-533 5 2 0
534 -110 0
534 -295 0
-534 110 295 0
-535 376 0
-535 467 0
535 -376 -467 0
536 -343 0
536 -292 0
-536 343 292 0
537 -151 0
537 -146 0
537 -145 0
537 -144 0
537 -107 0
537 -150 0
537 -8 0
537 -99 0
-537 151 146 145 144 107 150 8 99 0
375 -220 0
375 -129 0
-375 220 129 0
539 -375 0
539 -474 0
-539 375 474 0
611 -520 0
611 -594 0
-611 520 594 0
612 -191 0
612 -195 0
612 -281 0
612 -170 0
612 -112 0
612 -190 0
612 -193 0
612 -192 0
-612 191 195 281 170 112 190 193 192 0
617 -609 0
617 -515 0
-617 609 515 0
543 -456 0
543 -673 0
-543 456 673 0
544 -456 0
544 -348 0
-544 456 348 0
545 -72 0
545 -363 0
545 -358 0
-545 72 363 358 0
546 -456 0
546 -673 0
-546 456 673 0
547 -77 0
547 -399 0
547 -402 0
-547 77 399 402 0
548 -512 0
548 -508 0
-548 512 508 0
549 -210 0
549 -209 0
549 -322 0
549 -109 0
549 -212 0
549 -211 0
549 -214 0
549 -213 0
-549 210 209 322 109 212 211 214 213 0
550 -552 0
550 -553 0
-550 552 553 0
-551 654 0
-551 653 0
551 -654 -653 0
-552 650 0
-552 649 0
552 -650 -649 0
553 -549 0
553 -504 0
553 -507 0
553 -268 0
553 -506 0
-553 549 504 507 268 506 0
554 -201 0
554 -50 0
-554 201 50 0
555 -199 0
555 -163 0
-555 199 163 0
556 -222 0
556 -206 0
-556 222 206 0
-557 467 0
-557 468 0
557 -467 -468 0
-558 556 0
-558 563 0
558 -556 -563 0
559 -207 0
559 -202 0
-559 207 202 0
560 -554 0
560 -455 0
-560 554 455 0
561 -164 0
561 -165 0
561 -166 0
-561 164 165 166 0
562 -560 0
562 -555 0
-562 560 555 0
563 -228 0
563 -205 0
-563 228 205 0
-564 558 0
-564 557 0
564 -558 -557 0
565 -559 0
565 -208 0
-565 559 208 0
-566 467 0
-566 468 0
566 -467 -468 0
-567 573 0
-567 572 0
567 -573 -572 0
568 -91 0
568 -254 0
568 -255 0
568 -256 0
568 -257 0
568 -250 0
568 -251 0
568 -252 0
-568 91 254 255 256 257 250 251 252 0
-569 567 0
-569 566 0
569 -567 -566 0
570 -562 0
570 -561 0
-570 562 561 0
571 -565 0
571 -564 0
-571 565 564 0
572 -228 0
572 -205 0
-572 228 205 0
573 -222 0
573 -206 0
-573 222 206 0
574 -93 0
574 -92 0
-574 93 92 0
575 -579 0
575 -580 0
-575 579 580 0
576 -189 0
576 -162 0
576 -111 0
576 -109 0
576 -157 0
576 -20 0
-576 189 162 111 109 157 20 0
577 -194 0
577 -146 0
577 -144 0
577 -107 0
577 -143 0
577 -108 0
577 -149 0
577 -99 0
-577 194 146 144 107 143 108 149 99 0
578 -100 0
578 -161 0
578 -101 0
578 -68 0
578 -102 0
578 -67 0
578 -104 0
578 -70 0
-578 100 161 101 68 102 67 104 70 0
-579 581 0
-579 582 0
579 -581 -582 0
580 -477 0
580 -478 0
-580 477 478 0
581 -583 0
581 -198 0
-581 583 198 0
582 -422 0
582 -39 0
-582 422 39 0
-583 681 0
-583 682 0
583 -681 -682 0
-584 467 0
-584 468 0
584 -467 -468 0
-585 593 0
-585 592 0
585 -593 -592 0
586 -85 0
586 -202 0
-586 85 202 0
-587 585 0
-587 584 0
587 -585 -584 0
588 -586 0
588 -86 0
-588 586 86 0
589 -36 0
589 -200 0
-589 36 200 0
590 -35 0
590 -50 0
-590 35 50 0
591 -82 0
591 -163 0
-591 82 163 0
592 -228 0
592 -42 0
-592 228 42 0
593 -44 0
593 -41 0
-593 44 41 0
594 -645 0
594 -395 0
594 -396 0
594 -28 0
594 -393 0
-594 645 395 396 28 393 0
-595 597 0
-595 596 0
595 -597 -596 0
596 -609 0
596 -610 0
-596 609 610 0
597 -603 0
597 -602 0
-597 603 602 0
-598 371 0
-598 367 0
598 -371 -367 0
-599 426 0
-599 367 0
599 -426 -367 0
-600 611 0
-600 612 0
600 -611 -612 0
601 -595 0
601 -594 0
-601 595 594 0
602 -128 0
602 -408 0
602 -409 0
-602 128 408 409 0
603 -456 0
603 -351 0
-603 456 351 0
604 -121 0
604 -120 0
-604 121 120 0
605 -607 0
605 -608 0
-605 607 608 0
-606 513 0
-606 645 0
606 -513 -645 0
-607 617 0
-607 618 0
607 -617 -618 0
608 -612 0
608 -392 0
608 -389 0
608 -311 0
608 -390 0
-608 612 392 389 311 390 0
609 -456 0
609 -614 0
-609 456 614 0
610 -119 0
610 -457 0
610 -458 0
-610 119 457 458 0
540 -263 0
540 -262 0
-540 263 262 0
541 -335 0
541 -336 0
-541 335 336 0
613 -264 0
613 -541 0
613 -540 0
613 -337 0
613 -338 0
-613 264 541 540 337 338 0
614 -265 0
614 -613 0
-614 265 613 0
615 -619 0
615 -647 0
-615 619 647 0
616 -543 0
616 -648 0
-616 543 648 0
542 -616 0
542 -615 0
-542 616 615 0
618 -603 0
618 -514 0
-618 603 514 0
619 -456 0
619 -348 0
-619 456 348 0
620 -543 0
620 -547 0
-620 543 547 0
633 -15 0
633 -14 0
633 -57 0
633 -155 0
-633 15 14 57 155 0
622 -51 0
622 -237 0
-622 51 237 0
623 -55 0
623 -629 0
-623 55 629 0
624 -123 0
624 -236 0
-624 123 236 0
-625 623 0
-625 628 0
625 -623 -628 0
626 -56 0
626 -49 0
-626 56 49 0
-627 604 0
-627 468 0
627 -604 -468 0
628 -47 0
628 -125 0
-628 47 125 0
629 -626 0
629 -627 0
-629 626 627 0
-630 445 0
-630 45 0
630 -445 -45 0
-631 444 0
-631 48 0
631 -444 -48 0
-632 443 0
-632 249 0
632 -443 -249 0
-621 671 0
-621 670 0
621 -671 -670 0
-634 446 0
-634 46 0
634 -446 -46 0
-635 693 0
-635 372 0
635 -693 -372 0
636 -638 0
636 -637 0
-636 638 637 0
-637 385 0
-637 427 0
637 -385 -427 0
638 -640 0
638 -639 0
-638 640 639 0
-639 386 0
-639 372 0
639 -386 -372 0
640 -642 0
640 -641 0
-640 642 641 0
-641 381 0
-641 429 0
641 -381 -429 0
642 -644 0
642 -643 0
-642 644 643 0
-643 382 0
-643 372 0
643 -382 -372 0
644 -488 0
644 -489 0
-644 488 489 0
645 -135 0
645 -136 0
645 -317 0
645 -159 0
645 -141 0
645 -142 0
645 -139 0
645 -140 0
-645 135 136 317 159 141 142 139 140 0
513 -517 0
513 -608 0
-513 517 608 0
647 -52 0
647 -621 0
647 -672 0
-647 52 621 672 0
648 -115 0
648 -527 0
648 -526 0
-648 115 527 526 0
649 -544 0
649 -647 0
-649 544 647 0
650 -546 0
650 -648 0
-650 546 648 0
651 -33 0
651 -1 0
651 -185 0
651 -22 0
651 -182 0
651 -21 0
651 -153 0
651 -24 0
-651 33 1 185 22 182 21 153 24 0
652 -196 0
652 -1 0
652 -179 0
652 -185 0
652 -182 0
652 -232 0
652 -153 0
652 -59 0
-652 196 1 179 185 182 232 153 59 0
653 -187 0
653 -186 0
653 -156 0
653 -157 0
653 -71 0
653 -188 0
653 -184 0
653 -183 0
-653 187 186 156 157 71 188 184 183 0
654 -542 0
654 -553 0
-654 542 553 0
655 -25 0
655 -1 0
655 -179 0
655 -185 0
655 -22 0
655 -232 0
655 -26 0
655 -24 0
-655 25 1 179 185 22 232 26 24 0
656 -23 0
656 -1 0
656 -179 0
656 -22 0
656 -182 0
656 -21 0
656 -59 0
656 -26 0
-656 23 1 179 22 182 21 59 26 0
522 -546 0
522 -547 0
-522 546 547 0
658 -456 0
658 -351 0
-658 456 351 0
659 -667 0
659 -668 0
-659 667 668 0
660 -197 0
660 -113 0
-660 197 113 0
-661 659 0
-661 660 0
661 -659 -660 0
662 -219 0
662 -80 0
-662 219 80 0
663 -123 0
663 -122 0
-663 123 122 0
664 -121 0
664 -120 0
-664 121 120 0
-665 663 0
-665 664 0
665 -663 -664 0
-666 467 0
-666 468 0
666 -467 -468 0
667 -29 0
667 -32 0
-667 29 32 0
-668 531 0
-668 530 0
668 -531 -530 0
669 -676 0
669 -675 0
-669 676 675 0
670 -97 0
670 -246 0
-670 97 246 0
671 -258 0
671 -669 0
-671 258 669 0
672 -96 0
672 -53 0
-672 96 53 0
673 -95 0
673 -678 0
-673 95 678 0
674 -123 0
674 -122 0
-674 123 122 0
-675 674 0
-675 467 0
675 -674 -467 0
676 -261 0
676 -98 0
-676 261 98 0
677 -577 0
677 -578 0
-677 577 578 0
678 -94 0
678 -677 0
678 -574 0
678 -575 0
678 -576 0
-678 94 677 574 575 576 0
679 -634 0
679 -445 0
-679 634 445 0
680 -90 0
680 -89 0
-680 90 89 0
681 -679 0
681 -680 0
-681 679 680 0
682 -679 0
682 -685 0
-682 679 685 0
-683 687 0
-683 688 0
683 -687 -688 0
684 -282 0
684 -254 0
684 -255 0
684 -256 0
684 -259 0
684 -250 0
684 -283 0
684 -62 0
-684 282 254 255 256 259 250 283 62 0
685 -686 0
685 -683 0
-685 686 683 0
686 -684 0
686 -43 0
-686 684 43 0
-687 420 0
-687 419 0
687 -420 -419 0
-688 467 0
-688 468 0
688 -467 -468 0
-689 426 0
-689 371 0
689 -426 -371 0
-690 426 0
-690 371 0
690 -426 -371 0
691 -697 0
691 -698 0
-691 697 698 0
-692 598 0
-692 366 0
692 -598 -366 0
-693 367 0
-693 366 0
693 -367 -366 0
-694 367 0
-694 366 0
694 -367 -366 0
-695 689 0
-695 367 0
695 -689 -367 0
-696 690 0
-696 366 0
696 -690 -366 0
697 -695 0
697 -696 0
-697 695 696 0
-698 599 0
-698 366 0
698 -599 -366 0
